StudentsNr = 10;
InstructorsNr = 87;
DaysNr = 1;
SlotsPerDay = 20;
AvailabilitySlotsLenght = 20;
RoomNr = 2;
ProgrammNr = 1;
DegreeNr = 1;
RolesNr = 1;
CoursesNr = 8;
InstructorsProgramm = [{1}, {1}, {1}, {1}, {1}, {1}, {1}, {1}, {1}, {1}, {1}, {1}, {1}, {1}, {1}, {1}, {1}, {1}, {1}, {1}, {1}, {1}, {1}, {1}, {1}, {1}, {1}, {1}, {1}, {1}, {1}, {1}, {1}, {1}, {1}, {1}, {1}, {1}, {1}, {1}, {1}, {1}, {1}, {1}, {1}, {1}, {1}, {1}, {1}, {1}, {1}, {1}, {1}, {1}, {1}, {1}, {1}, {1}, {1}, {1}, {1}, {1}, {1}, {1}, {1}, {1}, {1}, {1}, {1}, {1}, {1}, {1}, {1}, {1}, {1}, {1}, {1}, {1}, {1}, {1}, {1}, {1}, {1}, {1}, {1}, {1}, {1}];
InstructorRolesPerProgramm = [|{2, 4, 6, 7, 11, 13, 16, 24, 25, 26, 27, 29, 33, 34, 37, 39, 40, 42, 43, 45, 46, 47, 51, 52, 57, 60, 63, 64, 65, 66, 68, 70, 72, 76, 77, 80, 83, 87}|];
InstructorsAvailability = [|0, |0, |0, |0, |0, |1, |0, |0, |0, |0, |0, |1, |0, |0, |0, |1, |1, |1, |1, |0, |1, |0, |0, |0, |1, |1, |0, |1, |1, |1, |1, |0, |1, |0, |1, |1, |0, |0, |0, |1, |1, |0, |1, |1, |0, |0, |1, |1, |0, |1, |1, |1, |1, |1, |0, |1, |0, |1, |1, |0, |0, |0, |1, |1, |0, |1, |0, |1, |0, |1, |1, |1, |1, |0, |1, |1, |1, |0, |0, |1, |0, |0, |1, |1, |0, |0, |1|];
StudentsProgramm = [1, 1, 1, 1, 1, 1, 1, 1, 1, 1];
StudentsDegree = [1, 1, 1, 1, 1, 1, 1, 1, 1, 1];
StudentsSupervisorId = [78, 42, 66, 37, 1, 32, 32, 43, 71, 47];
StudentsCourseIds = [{}, {}, {}, {}, {}, {}, {}, {}, {}, {}];
StudentsAvailability = [|0, |1, |1, |0, |0, |1, |1, |1, |1, |0|];
TheoryticalMinCard = [1, 0, 0, 0, 1, 1, 1, 0, 1, 0];
CoursesInstructorIds = [{3, 4, 5, 6, 7, 9, 11, 12, 15, 17, 19, 20, 21, 23, 24, 26, 32, 33, 34, 35, 36, 39, 40, 41, 43, 45, 47, 48, 49, 50, 51, 52, 54, 55, 56, 57, 58, 60, 66, 67, 68, 71, 73, 78, 79, 80, 84, 86, 87}, {1, 4, 5, 7, 9, 10, 13, 16, 18, 23, 24, 26, 28, 29, 31, 35, 42, 44, 47, 48, 49, 50, 54, 55, 59, 64, 69, 72, 73, 78, 82, 85, 86}, {2, 7, 8, 9, 10, 13, 16, 22, 30, 31, 38, 40, 41, 42, 43, 46, 50, 51, 64, 65, 73, 80}, {4}, {1, 2, 3, 4, 7, 8, 9, 11, 13, 15, 16, 17, 18, 19, 21, 28, 30, 31, 37, 38, 41, 43, 44, 49, 52, 54, 56, 57, 59, 60, 62, 64, 67, 69, 70, 71, 73, 77, 81, 82, 83, 86}, {1, 2, 3, 4, 6, 7, 9, 12, 13, 15, 16, 18, 19, 20, 22, 23, 24, 25, 27, 28, 32, 34, 35, 38, 40, 42, 44, 45, 46, 47, 49, 53, 54, 55, 57, 59, 60, 63, 65, 66, 67, 68, 69, 70, 71, 72, 73, 74, 75, 76, 80, 81, 82, 83, 85, 86}, {1, 2, 3, 5, 8, 10, 13, 17, 24, 25, 33, 37, 40, 43, 48, 50, 54, 55, 60, 62, 67, 69, 75, 82, 83}, {2, 5, 12, 16, 19, 38, 41, 45, 48, 51, 53, 55, 62, 66, 71, 73, 83, 84}];
RolesDemands = [3];
RolesContinuity = [];
ExamLen = [1, 1, 1, 1, 1, 1, 1, 1, 1, 1];
LunchTsMinLen = 1;
LunchStarts = [9..15];
SupervisorAvailable = 0;
OptimalLunchLenght = [2, 1];
OptimalStartTs = [1, 0];
OptimalFinishTs = [1, 20];
MinimizeRooms = 500;
RolesSoftContinuity = [|1|1|];
SameDegreeInRoom = 10;
Mergeability = 1;
